c colouring generated by benchmark framework
p edge 188 3885
v 1 24
v 2 4
v 3 16
v 4 15
v 5 27
v 6 1
v 7 12
v 8 17
v 9 31
v 10 0
v 11 7
v 12 6
v 13 18
v 14 20
v 15 2
v 16 26
v 17 2
v 18 6
v 19 3
v 20 1
v 21 13
v 22 27
v 23 0
v 24 16
v 25 17
v 26 28
v 27 5
v 28 11
v 29 10
v 30 19
v 31 4
v 32 30
v 33 28
v 34 22
v 35 22
v 36 22
v 37 9
v 38 8
v 39 8
v 40 8
v 41 8
v 42 8
v 43 8
v 44 8
v 45 29
v 46 25
v 47 10
v 48 22
v 49 9
v 50 11
v 51 10
v 52 8
v 53 3
v 54 21
v 55 7
v 56 7
v 57 7
v 58 23
v 59 7
v 60 14
v 61 5
v 62 18
v 63 25
v 64 13
v 65 22
v 66 19
v 67 14
v 68 21
v 69 31
v 70 13
v 71 7
v 72 8
v 73 20
v 74 8
v 75 29
v 76 8
v 77 9
v 78 20
v 79 8
v 80 18
v 81 15
v 82 9
v 83 12
v 84 20
v 85 8
v 86 26
v 87 18
v 88 21
v 89 31
v 90 9
v 91 15
v 92 15
v 93 18
v 94 20
v 95 20
v 96 21
v 97 22
v 98 4
v 99 22
v 100 23
v 101 30
v 102 23
v 103 23
v 104 23
v 105 29
v 106 23
v 107 23
v 108 23
v 109 10
v 110 29
v 111 22
v 112 23
v 113 23
v 114 22
v 115 29
v 116 25
v 117 23
v 118 28
v 119 23
v 120 23
v 121 22
v 122 22
v 123 23
v 124 22
v 125 7
v 126 5
v 127 0
v 128 23
v 129 23
v 130 25
v 131 28
v 132 25
v 133 29
v 134 28
v 135 28
v 136 25
v 137 23
v 138 23
v 139 20
v 140 23
v 141 13
v 142 20
v 143 23
v 144 28
v 145 29
v 146 28
v 147 28
v 148 23
v 149 23
v 150 8
v 151 23
v 152 6
v 153 19
v 154 28
v 155 28
v 156 29
v 157 28
v 158 28
v 159 7
v 160 23
v 161 15
v 162 12
v 163 22
v 164 5
v 165 25
v 166 14
v 167 15
v 168 14
v 169 21
v 170 14
v 171 12
v 172 18
v 173 25
v 174 9
v 175 8
v 176 7
v 177 7
v 178 8
v 179 7
v 180 15
v 181 19
v 182 2
v 183 5
v 184 30
v 185 12
v 186 8
v 187 7
v 188 7
